NAME: ACTUAL_TOURS/amz1121
TYPE: TOUR
COMMENT: RouteID_7743e99f-3c99-4dca-98ab-9b2501f86d61
DIMENSION: 174
TOUR_SECTION
76
119
160
49
107
103
15
141
109
131
81
117
105
96
65
8
158
73
87
165
33
74
34
31
173
137
111
64
80
127
45
20
94
72
43
174
62
4
152
92
41
70
154
48
25
151
71
128
69
133
171
38
104
110
21
46
5
11
144
153
169
142
77
35
138
2
55
113
82
84
18
3
58
68
147
91
86
132
19
118
97
14
22
115
27
88
61
63
6
59
57
40
139
32
37
168
85
143
30
24
112
50
135
79
39
129
121
149
167
47
90
60
29
16
155
166
162
1
36
157
172
146
134
130
124
56
106
114
125
108
7
51
17
120
23
101
161
10
148
9
83
53
145
99
164
42
52
123
140
28
66
156
116
13
95
136
93
75
102
44
67
126
122
163
159
26
89
78
54
100
150
12
170
98
-1
EOF
